87 87
2 6
85 32
62 2
10 26
20 14
60 18
35 39
42 31
48 4
41 7
51 41
67 40
29 35
30 38
11 6
52 39
33 37
13 24
37 1
3 13
73 43
81 21
78 16
49 8
57 35
74 30
84 20
70 30
45 37
54 43
7 22
28 16
75 33
6 11
34 20
5 14
22 19
25 9
16 42
77 9
65 21
8 5
56 5
55 19
24 38
44 33
47 13
64 41
87 17
53 12
12 11
26 1
18 4
72 10
31 27
68 23
32 23
15 17
63 42
86 32
39 8
69 27
43 7
9 10
14 36
4 28
80 15
17 3
36 18
40 44
79 22
58 2
59 31
66 29
19 25
71 34
50 24
21 15
83 25
46 26
82 40
38 12
1 3
23 29
27 34
76 36
61 28
